solution status: optimal solution found
objective value:                     154022.528692173
d11(0,0)                                            1 	(obj:0)
d11(1,1)                                            1 	(obj:0)
d11(2,4)                                            1 	(obj:0)
d11(2,5)                                            1 	(obj:0)
d11(2,6)                                            1 	(obj:0)
d11(2,7)                                            1 	(obj:0)
d11(2,8)                                            1 	(obj:0)
d11(2,9)                                            1 	(obj:0)
d11(2,10)                                           1 	(obj:0)
d11(2,11)                                           1 	(obj:0)
d11(2,12)                                           1 	(obj:0)
d11(3,13)                                           1 	(obj:0)
d11(3,16)                                           1 	(obj:0)
d11(3,17)                                           1 	(obj:0)
d11(3,19)                                           1 	(obj:0)
d11(3,20)                                           1 	(obj:0)
d11(3,22)                                           1 	(obj:0)
d11(3,23)                                           1 	(obj:0)
d11(3,25)                                           1 	(obj:0)
d11(3,28)                                           1 	(obj:0)
d11(3,29)                                           1 	(obj:0)
d11(3,31)                                           1 	(obj:0)
d11(3,32)                                           1 	(obj:0)
d11(3,34)                                           1 	(obj:0)
d11(3,35)                                           1 	(obj:0)
d11(3,37)                                           1 	(obj:0)
d11(3,38)                                           1 	(obj:0)
d11(4,40)                                           1 	(obj:0)
d11(4,41)                                           1 	(obj:0)
d11(4,43)                                           1 	(obj:0)
d11(4,44)                                           1 	(obj:0)
d11(4,46)                                           1 	(obj:0)
d11(4,47)                                           1 	(obj:0)
d11(4,49)                                           1 	(obj:0)
d11(4,50)                                           1 	(obj:0)
d11(4,52)                                           1 	(obj:0)
d11(4,53)                                           1 	(obj:0)
d11(4,55)                                           1 	(obj:0)
d11(4,56)                                           1 	(obj:0)
d11(4,58)                                           1 	(obj:0)
d11(4,59)                                           1 	(obj:0)
d11(4,61)                                           1 	(obj:0)
d11(4,62)                                           1 	(obj:0)
d11(4,64)                                           1 	(obj:0)
d11(4,65)                                           1 	(obj:0)
d11(4,67)                                           1 	(obj:0)
d11(4,68)                                           1 	(obj:0)
d11(4,70)                                           1 	(obj:0)
d11(4,71)                                           1 	(obj:0)
d11(4,73)                                           1 	(obj:0)
d11(4,74)                                           1 	(obj:0)
d11(4,76)                                           1 	(obj:0)
d11(4,77)                                           1 	(obj:0)
d11(4,79)                                           1 	(obj:0)
d11(4,80)                                           1 	(obj:0)
d11(4,82)                                           1 	(obj:0)
d11(4,83)                                           1 	(obj:0)
d11(4,85)                                           1 	(obj:0)
d11(4,86)                                           1 	(obj:0)
d11(4,88)                                           1 	(obj:0)
d11(4,89)                                           1 	(obj:0)
d11(4,91)                                           1 	(obj:0)
d11(4,92)                                           1 	(obj:0)
d11(4,94)                                           1 	(obj:0)
d11(4,95)                                           1 	(obj:0)
d11(4,97)                                           1 	(obj:0)
d11(4,98)                                           1 	(obj:0)
d11(4,100)                                          1 	(obj:0)
d11(4,101)                                          1 	(obj:0)
d11(4,103)                                          1 	(obj:0)
d11(4,104)                                          1 	(obj:0)
d11(4,106)                                          1 	(obj:0)
d11(4,107)                                          1 	(obj:0)
d11(4,109)                                          1 	(obj:0)
d11(4,110)                                          1 	(obj:0)
d11(4,112)                                          1 	(obj:0)
d11(4,113)                                          1 	(obj:0)
d11(4,115)                                          1 	(obj:0)
d11(4,116)                                          1 	(obj:0)
d11(4,118)                                          1 	(obj:0)
d11(4,119)                                          1 	(obj:0)
d12(1,2)                                            1 	(obj:0)
d12(1,3)                                            1 	(obj:0)
d12(3,15)                                           1 	(obj:0)
d12(3,18)                                           1 	(obj:0)
d12(3,21)                                           1 	(obj:0)
d12(3,24)                                           1 	(obj:0)
d12(3,27)                                           1 	(obj:0)
d12(3,30)                                           1 	(obj:0)
d12(3,33)                                           1 	(obj:0)
d12(3,36)                                           1 	(obj:0)
d12(3,39)                                           1 	(obj:0)
d12(4,42)                                           1 	(obj:0)
d12(4,45)                                           1 	(obj:0)
d12(4,48)                                           1 	(obj:0)
d12(4,51)                                           1 	(obj:0)
d12(4,54)                                           1 	(obj:0)
d12(4,57)                                           1 	(obj:0)
d12(4,60)                                           1 	(obj:0)
d12(4,63)                                           1 	(obj:0)
d12(4,66)                                           1 	(obj:0)
d12(4,69)                                           1 	(obj:0)
d12(4,72)                                           1 	(obj:0)
d12(4,75)                                           1 	(obj:0)
d12(4,78)                                           1 	(obj:0)
d12(4,81)                                           1 	(obj:0)
d12(4,84)                                           1 	(obj:0)
d12(4,87)                                           1 	(obj:0)
d12(4,90)                                           1 	(obj:0)
d12(4,93)                                           1 	(obj:0)
d12(4,96)                                           1 	(obj:0)
d12(4,99)                                           1 	(obj:0)
d12(4,102)                                          1 	(obj:0)
d12(4,105)                                          1 	(obj:0)
d12(4,108)                                          1 	(obj:0)
d12(4,111)                                          1 	(obj:0)
d12(4,114)                                          1 	(obj:0)
d12(4,117)                                          1 	(obj:0)
d12(4,120)                                          1 	(obj:0)
d21(2,4)                                            1 	(obj:0)
d21(2,7)                                            1 	(obj:0)
d21(3,13)                                           1 	(obj:0)
d21(3,14)                                           1 	(obj:0)
d21(3,15)                                           1 	(obj:0)
d21(3,16)                                           1 	(obj:0)
d21(3,17)                                           1 	(obj:0)
d21(3,19)                                           1 	(obj:0)
d21(3,22)                                           1 	(obj:0)
d21(3,23)                                           1 	(obj:0)
d21(3,25)                                           1 	(obj:0)
d21(3,31)                                           1 	(obj:0)
d21(4,40)                                           1 	(obj:0)
d21(4,41)                                           1 	(obj:0)
d21(4,42)                                           1 	(obj:0)
d21(4,43)                                           1 	(obj:0)
d21(4,44)                                           1 	(obj:0)
d21(4,45)                                           1 	(obj:0)
d21(4,46)                                           1 	(obj:0)
d21(4,47)                                           1 	(obj:0)
d21(4,49)                                           1 	(obj:0)
d21(4,50)                                           1 	(obj:0)
d21(4,51)                                           1 	(obj:0)
d21(4,52)                                           1 	(obj:0)
d21(4,53)                                           1 	(obj:0)
d21(4,55)                                           1 	(obj:0)
d21(4,58)                                           1 	(obj:0)
d21(4,59)                                           1 	(obj:0)
d21(4,61)                                           1 	(obj:0)
d21(4,67)                                           1 	(obj:0)
d21(4,68)                                           1 	(obj:0)
d21(4,69)                                           1 	(obj:0)
d21(4,70)                                           1 	(obj:0)
d21(4,71)                                           1 	(obj:0)
d21(4,73)                                           1 	(obj:0)
d21(4,74)                                           1 	(obj:0)
d21(4,76)                                           1 	(obj:0)
d21(4,77)                                           1 	(obj:0)
d21(4,79)                                           1 	(obj:0)
d21(4,82)                                           1 	(obj:0)
d21(4,85)                                           1 	(obj:0)
d21(4,94)                                           1 	(obj:0)
d21(4,95)                                           1 	(obj:0)
d21(4,97)                                           1 	(obj:0)
d21(4,103)                                          1 	(obj:0)
y2(4,102)                            795.789473685256 	(obj:0)
y2(4,105)                            795.789473685256 	(obj:0)
y2(4,108)                            795.789473685256 	(obj:0)
y2(4,111)                            795.789473685288 	(obj:0)
y2(4,114)                            795.789473685256 	(obj:0)
y2(4,117)                            795.789473685256 	(obj:0)
y2(4,120)                            795.789473685256 	(obj:0)
STE(1,1)                             3494.47334307195 	(obj:0)
STE(0,0)                                         4725 	(obj:0)
STE(1,2)                                         4347 	(obj:0)
STE(1,3)                             5387.92163385004 	(obj:0)
STE(2,4)                             92.4733430709573 	(obj:0)
STE(2,5)                             1089.23934640425 	(obj:0)
STE(2,6)                             2306.69154973763 	(obj:0)
STE(2,7)                             944.999999999007 	(obj:0)
STE(2,8)                              1941.7660033323 	(obj:0)
STE(2,9)                             3159.21820666568 	(obj:0)
STE(2,10)                            1985.92163384905 	(obj:0)
STE(2,11)                            2982.68763718234 	(obj:0)
STE(2,12)                            4200.13984051571 	(obj:0)
STE(3,13)                           -1282.29266026233 	(obj:0)
STE(3,14)                           -285.526656929043 	(obj:0)
STE(3,15)                            627.036676920997 	(obj:0)
STE(3,16)                           -285.526656929043 	(obj:0)
STE(3,17)                            711.239346404248 	(obj:0)
STE(3,18)                            1623.80268025429 	(obj:0)
STE(3,19)                            931.925546404336 	(obj:0)
STE(3,20)                            1928.69154973763 	(obj:0)
STE(3,21)                            2841.25488358767 	(obj:0)
STE(3,22)                           -429.766003334284 	(obj:0)
STE(3,23)                            566.999999999007 	(obj:0)
STE(3,24)                            1479.56333384905 	(obj:0)
STE(3,25)                            566.999999999007 	(obj:0)
STE(3,26)                             1563.7660033323 	(obj:0)
STE(3,27)                            2476.32933718234 	(obj:0)
STE(3,28)                            1784.45220333239 	(obj:0)
STE(3,29)                            2781.21820666568 	(obj:0)
STE(3,30)                            3693.78154051572 	(obj:0)
STE(3,31)                            611.155630515755 	(obj:0)
STE(3,32)                            1607.92163384905 	(obj:0)
STE(3,33)                            2520.48496769909 	(obj:0)
STE(3,34)                            1607.92163384905 	(obj:0)
STE(3,35)                            2604.68763718234 	(obj:0)
STE(3,36)                            3517.25097103238 	(obj:0)
STE(3,37)                            2825.37383718242 	(obj:0)
STE(3,38)                            3822.13984051571 	(obj:0)
STE(3,39)                            4734.70317436575 	(obj:0)
STE(4,40)                           -2832.99269314727 	(obj:0)
STE(4,41)                           -1836.22668981397 	(obj:0)
STE(4,42)                            -904.29266026131 	(obj:0)
STE(4,43)                           -1836.22668981398 	(obj:0)
STE(4,44)                            -839.46068648072 	(obj:0)
STE(4,45)                            92.4733430719812 	(obj:0)
STE(4,46)                           -923.663355963943 	(obj:0)
STE(4,47)                            73.1026473693093 	(obj:0)
STE(4,48)                            1005.03667692202 	(obj:0)
STE(4,49)                           -1836.22668981398 	(obj:0)
STE(4,50)                           -839.460686480658 	(obj:0)
STE(4,51)                             92.473343071981 	(obj:0)
STE(4,52)                           -839.460686480692 	(obj:0)
STE(4,53)                            157.305316852599 	(obj:0)
STE(4,54)                            1089.23934640527 	(obj:0)
STE(4,55)                            73.1026473693482 	(obj:0)
STE(4,56)                            1069.86865070264 	(obj:0)
STE(4,57)                            2001.80268025531 	(obj:0)
STE(4,58)                           -618.774486480605 	(obj:0)
STE(4,59)                            377.991516852648 	(obj:0)
STE(4,60)                            1309.92554640536 	(obj:0)
STE(4,61)                            377.991516852686 	(obj:0)
STE(4,62)                            1374.75752018598 	(obj:0)
STE(4,63)                            2306.69154973865 	(obj:0)
STE(4,64)                            1290.55485070273 	(obj:0)
STE(4,65)                            2287.32085403602 	(obj:0)
STE(4,66)                            3219.25488358869 	(obj:0)
STE(4,67)                           -1980.46603621922 	(obj:0)
STE(4,68)                           -983.700032885934 	(obj:0)
STE(4,69)                           -51.7660033332606 	(obj:0)
STE(4,70)                           -983.700032885934 	(obj:0)
STE(4,71)                            13.0659704473572 	(obj:0)
STE(4,72)                             945.00000000003 	(obj:0)
STE(4,73)                           -71.1366990358934 	(obj:0)
STE(4,74)                            925.629304297389 	(obj:0)
STE(4,75)                            1857.56333385007 	(obj:0)
STE(4,76)                           -983.700032885933 	(obj:0)
STE(4,77)                             13.065970447321 	(obj:0)
STE(4,78)                                         945 	(obj:0)
STE(4,79)                            13.0659704473578 	(obj:0)
STE(4,80)                            1009.83197378065 	(obj:0)
STE(4,81)                            1941.76600333329 	(obj:0)
STE(4,82)                            925.629304297398 	(obj:0)
STE(4,83)                            1922.39530763069 	(obj:0)
STE(4,84)                            2854.32933718333 	(obj:0)
STE(4,85)                            233.752170447445 	(obj:0)
STE(4,86)                            1230.51817378074 	(obj:0)
STE(4,87)                            2162.45220333341 	(obj:0)
STE(4,88)                            1230.51817378074 	(obj:0)
STE(4,89)                            2227.28417711403 	(obj:0)
STE(4,90)                             3159.2182066667 	(obj:0)
STE(4,91)                            2143.08150763078 	(obj:0)
STE(4,92)                            3139.84751096407 	(obj:0)
STE(4,93)                            4071.78154051671 	(obj:0)
STE(4,94)                           -939.544402369186 	(obj:0)
STE(4,95)                            57.2216009641052 	(obj:0)
STE(4,96)                            989.155630516778 	(obj:0)
STE(4,97)                             57.221600964105 	(obj:0)
STE(4,98)                             1053.9876042974 	(obj:0)
STE(4,99)                            1985.92163385007 	(obj:0)
STE(4,100)                           969.784934814145 	(obj:0)
STE(4,101)                           1966.55093814744 	(obj:0)
STE(4,102)                           2898.48496770008 	(obj:0)
STE(4,103)                            57.221600964105 	(obj:0)
STE(4,104)                            1053.9876042974 	(obj:0)
STE(4,105)                           1985.92163385004 	(obj:0)
STE(4,106)                            1053.9876042974 	(obj:0)
STE(4,107)                           2050.75360763069 	(obj:0)
STE(4,108)                           2982.68763718333 	(obj:0)
STE(4,109)                           1966.55093814744 	(obj:0)
STE(4,110)                           2963.31694148074 	(obj:0)
STE(4,111)                            3895.2509710334 	(obj:0)
STE(4,112)                           1274.67380429748 	(obj:0)
STE(4,113)                           2271.43980763077 	(obj:0)
STE(4,114)                           3203.37383718342 	(obj:0)
STE(4,115)                           2271.43980763077 	(obj:0)
STE(4,116)                            3268.2058109641 	(obj:0)
STE(4,117)                           4200.13984051671 	(obj:0)
STE(4,118)                           3184.00314148081 	(obj:0)
STE(4,119)                            4180.7691448141 	(obj:0)
STE(4,120)                           5112.70317436675 	(obj:0)
y1(4,100)                            1055.43002959645 	(obj:0)
y1(4,101)                            158.340626596484 	(obj:0)
y1(4,103)                            1055.43002959645 	(obj:0)
y1(4,104)                            158.340626596484 	(obj:0)
y1(4,106)                            1055.43002959645 	(obj:0)
y1(4,107)                            158.340626596484 	(obj:0)
y1(4,109)                            1055.43002959645 	(obj:0)
y1(4,110)                            158.340626596476 	(obj:0)
y1(4,112)                            1055.43002959645 	(obj:0)
y1(4,113)                            158.340626596484 	(obj:0)
y1(4,115)                            1055.43002959645 	(obj:0)
y1(4,116)                            158.340626596454 	(obj:0)
y1(4,118)                            1055.43002959645 	(obj:0)
y1(4,119)                            158.340626596484 	(obj:0)
WB(3)                                 3399.3204933139 	(obj:0)
AVE(3)                                3399.3204933139 	(obj:0)
AVE(4)                               3353.21046544222 	(obj:0)
y2(4,99)                             795.789473685288 	(obj:0)
WG(4)                                3353.21046544222 	(obj:10)
BG(1)                                 3245.3852941176 	(obj:10)
BG(2)                                5239.59550714375 	(obj:10)
BG(3)                                3377.84999999995 	(obj:10)
BG(4)                                186.211602513367 	(obj:10)
WB(1)                                3134.60043707458 	(obj:0)
AVE(1)                               3134.60043707458 	(obj:0)
WB(2)                                3326.45170866643 	(obj:0)
AVE(2)                               3326.45170866643 	(obj:0)
y1(1,1)                              767.273991235245 	(obj:0)
y1(2,4)                              2721.60000000089 	(obj:0)
y1(2,5)                              1824.51059700093 	(obj:0)
y1(2,6)                              728.803614000892 	(obj:0)
y1(2,7)                              2721.60000000089 	(obj:0)
y1(2,8)                              1824.51059700093 	(obj:0)
y1(2,9)                              728.803614000892 	(obj:0)
y1(2,10)                             2721.60000000089 	(obj:0)
y1(2,11)                             1824.51059700093 	(obj:0)
y1(2,12)                             728.803614000892 	(obj:0)
y1(3,13)                             897.089402999962 	(obj:0)
y1(3,16)                             897.089402999962 	(obj:0)
y1(3,19)                             897.089402999962 	(obj:0)
y1(3,22)                             897.089402999962 	(obj:0)
y1(3,25)                             897.089402999962 	(obj:0)
y1(3,28)                             897.089402999962 	(obj:0)
y1(3,31)                             897.089402999962 	(obj:0)
y1(3,34)                             897.089402999962 	(obj:0)
y1(3,37)                             897.089402999962 	(obj:0)
y1(4,40)                             1055.43002959645 	(obj:0)
y1(4,41)                             158.340626596473 	(obj:0)
y1(4,43)                             1055.43002959645 	(obj:0)
y1(4,44)                             158.340626596509 	(obj:0)
y1(4,46)                             1055.43002959645 	(obj:0)
y1(4,47)                             158.340626596519 	(obj:0)
y1(4,49)                             1055.43002959645 	(obj:0)
y1(4,50)                             158.340626596454 	(obj:0)
y1(4,52)                             1055.43002959645 	(obj:0)
y1(4,53)                             158.340626596484 	(obj:0)
y1(4,55)                             1055.43002959645 	(obj:0)
y1(4,56)                             158.340626596484 	(obj:0)
y1(4,58)                             1055.43002959645 	(obj:0)
y1(4,59)                             158.340626596519 	(obj:0)
y1(4,61)                             1055.43002959645 	(obj:0)
y1(4,62)                             158.340626596484 	(obj:0)
y1(4,64)                             1055.43002959645 	(obj:0)
y1(4,65)                             158.340626596484 	(obj:0)
y1(4,67)                             1055.43002959645 	(obj:0)
y1(4,68)                             158.340626596484 	(obj:0)
y1(4,70)                             1055.43002959645 	(obj:0)
y1(4,71)                             158.340626596484 	(obj:0)
y1(4,73)                             1055.43002959645 	(obj:0)
y1(4,74)                             158.340626596492 	(obj:0)
y1(4,76)                             1055.43002959645 	(obj:0)
y1(4,77)                             158.340626596518 	(obj:0)
y1(4,79)                             1055.43002959645 	(obj:0)
y1(4,80)                             158.340626596484 	(obj:0)
y1(4,82)                             1055.43002959645 	(obj:0)
y1(4,83)                             158.340626596484 	(obj:0)
y1(4,85)                             1055.43002959645 	(obj:0)
y1(4,86)                             158.340626596484 	(obj:0)
y1(4,88)                             1055.43002959645 	(obj:0)
y1(4,89)                             158.340626596484 	(obj:0)
y1(4,91)                             1055.43002959645 	(obj:0)
y1(4,92)                             158.340626596484 	(obj:0)
y1(4,94)                             1055.43002959645 	(obj:0)
y1(4,95)                             158.340626596484 	(obj:0)
y1(4,97)                             1055.43002959645 	(obj:0)
y1(4,98)                             158.340626596484 	(obj:0)
y2(1,3)                              1095.70698300004 	(obj:0)
y2(3,15)                             960.592983000042 	(obj:0)
y2(3,18)                             960.592983000042 	(obj:0)
y2(3,21)                             960.592983000042 	(obj:0)
y2(3,24)                             960.592983000042 	(obj:0)
y2(3,27)                             960.592983000042 	(obj:0)
y2(3,30)                             960.592983000042 	(obj:0)
y2(3,33)                             960.592983000042 	(obj:0)
y2(3,36)                             960.592983000042 	(obj:0)
y2(3,39)                             960.592983000042 	(obj:0)
y2(4,42)                             795.789473685288 	(obj:0)
y2(4,45)                             795.789473685288 	(obj:0)
y2(4,48)                             795.789473685288 	(obj:0)
y2(4,51)                             795.789473685288 	(obj:0)
y2(4,54)                             795.789473685288 	(obj:0)
y2(4,57)                             795.789473685288 	(obj:0)
y2(4,60)                             795.789473685288 	(obj:0)
y2(4,63)                             795.789473685288 	(obj:0)
y2(4,66)                             795.789473685288 	(obj:0)
y2(4,69)                             795.789473685288 	(obj:0)
y2(4,72)                             795.789473685288 	(obj:0)
y2(4,75)                             795.789473685288 	(obj:0)
y2(4,78)                             795.789473685256 	(obj:0)
y2(4,81)                             795.789473685256 	(obj:0)
y2(4,84)                             795.789473685256 	(obj:0)
y2(4,87)                             795.789473685288 	(obj:0)
y2(4,90)                             795.789473685288 	(obj:0)
y2(4,93)                             795.789473685256 	(obj:0)
y2(4,96)                             795.789473685288 	(obj:0)
